# Objective value = 2.0996800000000044e+03
I_0_0 1214
I_0_1 1672
I_0_2 1.6159999999999959e+03
I_0_3 1.4709999999999977e+03
I_1_0 160
I_1_1 80
I_1_2 0
I_1_3 1.6000000000000003e+02
I_2_0 52
I_2_1 26
I_2_2 -5.6843418860808015e-14
I_2_3 5.2000000000000128e+01
I_3_0 18
I_3_1 0
I_3_2 1.8000000000000085e+01
I_3_3 0
I_4_0 64
I_4_1 32
I_4_2 0
I_4_3 6.4000000000000114e+01
I_5_0 21
I_5_1 0
I_5_2 21
I_5_3 0
I_6_0 126
I_6_1 63
I_6_2 2.8421709430404007e-14
I_6_3 126
I_7_0 22
I_7_1 0
I_7_2 22
I_7_3 0
I_8_0 99
I_8_1 -2.1439881218741278e-12
I_8_2 9.9000000000002160e+01
I_8_3 0
I_9_0 116
I_9_1 58
I_9_2 1.1599999999999986e+02
I_9_3 58
I_10_0 78
I_10_1 39
I_10_2 78
I_10_3 39
q_1_0 0
q_1_1 0
q_1_2 2.4000000000000003e+02
q_2_0 0
q_2_1 0
q_2_2 7.8000000000000185e+01
q_3_0 0
q_3_1 3.6000000000000085e+01
q_3_2 -8.5265128291212022e-14
q_4_0 0
q_4_1 0
q_4_2 9.6000000000000114e+01
q_5_0 0
q_5_1 42
q_5_2 0
q_6_0 0
q_6_1 0
q_6_2 1.8899999999999997e+02
q_7_0 0
q_7_1 44
q_7_2 0
q_8_0 -2.1439881218741278e-12
q_8_1 1.9800000000000432e+02
q_8_2 -2.1600499167107046e-12
q_9_0 0
q_9_1 1.1599999999999986e+02
q_9_2 1.4921397450962104e-13
q_10_0 0
q_10_1 78
q_10_2 0
y_0_0 0
y_0_1 1
y_0_2 1
y_1_0 0
y_1_1 0
y_1_2 1.0000000000000002e+00
y_2_0 0
y_2_1 0
y_2_2 1.0000000000000024e+00
y_3_0 0
y_3_1 1.0000000000000047e+00
y_3_2 0
y_4_0 0
y_4_1 0
y_4_2 1.0000000000000011e+00
y_5_0 0
y_5_1 1
y_5_2 0
y_6_0 0
y_6_1 0
y_6_2 1
y_7_0 0
y_7_1 1
y_7_2 0
y_8_0 -2.1656445675496240e-14
y_8_1 1.0000000000000218e+00
y_8_2 0
y_9_0 0
y_9_1 9.9999999999999867e-01
y_9_2 1.3877787807814457e-15
y_10_0 0
y_10_1 1
y_10_2 0
x_0_1_0 0
x_0_1_1 0
x_0_1_2 -7.7715611723760958e-16
x_0_2_0 0
x_0_2_1 0
x_0_2_2 1.0000000000000007e+00
x_0_3_0 0
x_0_3_1 1
x_0_3_2 0
x_0_4_0 0
x_0_4_1 0
x_0_4_2 0
x_0_5_0 0
x_0_5_1 1
x_0_5_2 0
x_0_6_0 0
x_0_6_1 0
x_0_6_2 1
x_0_7_0 0
x_0_7_1 0
x_0_7_2 0
x_0_8_0 0
x_0_8_1 0
x_0_8_2 0
x_0_9_0 0
x_0_9_1 0
x_0_9_2 0
x_0_10_0 0
x_0_10_1 0
x_0_10_2 0
x_1_2_0 0
x_1_2_1 0
x_1_2_2 0
x_1_3_0 0
x_1_3_1 0
x_1_3_2 0
x_1_4_0 0
x_1_4_1 0
x_1_4_2 1.0000000000000011e+00
x_1_5_0 0
x_1_5_1 0
x_1_5_2 0
x_1_6_0 0
x_1_6_1 0
x_1_6_2 9.9999999999999989e-01
x_1_7_0 0
x_1_7_1 0
x_1_7_2 0
x_1_8_0 0
x_1_8_1 0
x_1_8_2 0
x_1_9_0 0
x_1_9_1 0
x_1_9_2 0
x_1_10_0 0
x_1_10_1 0
x_1_10_2 0
x_2_3_0 0
x_2_3_1 0
x_2_3_2 0
x_2_4_0 0
x_2_4_1 0
x_2_4_2 1.0000000000000011e+00
x_2_5_0 0
x_2_5_1 0
x_2_5_2 0
x_2_6_0 0
x_2_6_1 0
x_2_6_2 0
x_2_7_0 0
x_2_7_1 0
x_2_7_2 0
x_2_8_0 0
x_2_8_1 0
x_2_8_2 0
x_2_9_0 0
x_2_9_1 0
x_2_9_2 2.6645352591003757e-15
x_2_10_0 0
x_2_10_1 0
x_2_10_2 0
x_3_4_0 0
x_3_4_1 0
x_3_4_2 0
x_3_5_0 0
x_3_5_1 0
x_3_5_2 0
x_3_6_0 0
x_3_6_1 0
x_3_6_2 0
x_3_7_0 0
x_3_7_1 0
x_3_7_2 0
x_3_8_0 0
x_3_8_1 3.3417713041217212e-14
x_3_8_2 0
x_3_9_0 0
x_3_9_1 9.9999999999998745e-01
x_3_9_2 5.5511151231257827e-17
x_3_10_0 0
x_3_10_1 0
x_3_10_2 0
x_4_5_0 0
x_4_5_1 0
x_4_5_2 0
x_4_6_0 0
x_4_6_1 0
x_4_6_2 0
x_4_7_0 0
x_4_7_1 0
x_4_7_2 0
x_4_8_0 0
x_4_8_1 0
x_4_8_2 0
x_4_9_0 0
x_4_9_1 0
x_4_9_2 0
x_4_10_0 0
x_4_10_1 0
x_4_10_2 0
x_5_6_0 0
x_5_6_1 0
x_5_6_2 0
x_5_7_0 0
x_5_7_1 0
x_5_7_2 0
x_5_8_0 0
x_5_8_1 0
x_5_8_2 0
x_5_9_0 0
x_5_9_1 0
x_5_9_2 0
x_5_10_0 0
x_5_10_1 1
x_5_10_2 0
x_6_7_0 0
x_6_7_1 0
x_6_7_2 0
x_6_8_0 0
x_6_8_1 0
x_6_8_2 0
x_6_9_0 0
x_6_9_1 0
x_6_9_2 0
x_6_10_0 0
x_6_10_1 0
x_6_10_2 0
x_7_8_0 0
x_7_8_1 1
x_7_8_2 0
x_7_9_0 0
x_7_9_1 0
x_7_9_2 0
x_7_10_0 0
x_7_10_1 1
x_7_10_2 0
x_8_9_0 0
x_8_9_1 1.0000000000000098e+00
x_8_9_2 0
x_8_10_0 0
x_8_10_1 0
x_8_10_2 0
x_9_10_0 0
x_9_10_1 0
x_9_10_2 0
